sat
(:max-memory                   19.68
 :memory                       18.00
 :nlsat-conflicts              43
 :nlsat-decisions              12
 :nlsat-irrational-assignments 5
 :nlsat-learned-added          43
 :nlsat-propagations           454
 :nlsat-stages                 39
 :num-allocs                   5445411
 :rlimit-count                 934736
 :time                         88.81
 :total-time                   88.61)
